c User generated cnf file
p cnf 10 36
10 5 -9 0 
10 5 -4 0 
9 1 -3 0 
9 6 -1 0 
5 4 -3 0 
5 1 -1 0 
3 -1 9 0 
1 -6 1 0 
5 6 -7 0 
2 -2 10 0 
4 -9 8 0 
3 7 -9 0 
10 -9 5 0 
3 -10 8 0 
1 2 -5 0 
10 -7 10 0 
1 -10 10 0 
6 9 -7 0 
3 5 -2 0 
4 -9 9 0 
6 -5 7 0 
1 8 -9 0 
10 -2 8 0 
8 8 -9 0 
10 -10 2 0 
8 7 -6 0 
9 4 -7 0 
7 -7 3 0 
5 1 -5 0 
2 9 -2 0 
7 -2 8 0 
1 1 -3 0 
2 -6 7 0 
5 1 -1 0 
4 6 -8 0 
4 -4 7 0 
